(declare-fun temp682_1 () (_ BitVec 64))
(declare-fun var201290 () (_ BitVec 64))
(declare-fun var201292 () (_ BitVec 64))
(declare-fun temp682_2 () (_ BitVec 64))
(declare-fun var332362 () (_ BitVec 64))
(declare-fun var332364 () (_ BitVec 64))
(declare-fun temp682_3 () (_ BitVec 64))
(declare-fun var733184 () (_ BitVec 64))
(declare-fun k!0 () Bool)
(declare-fun ARGNAME_input_NAMEEND_DIM () (_ BitVec 64))
(declare-fun ARGNAME_dims_NAMEEND_LEN () (_ BitVec 64))
(declare-fun temp682_5 () (_ BitVec 64))
(declare-fun temp682_4 () (_ BitVec 64))
(declare-fun temp682_6 () (_ BitVec 64))
(declare-fun var987722 () (_ BitVec 64))
(declare-fun var987724 () (_ BitVec 64))
(declare-fun temp682_8 () (_ BitVec 64))
(declare-fun temp682_7 () (_ BitVec 64))
(declare-fun temp682_9 () (_ BitVec 64))
(declare-fun var1315402 () (_ BitVec 64))
(declare-fun var1315404 () (_ BitVec 64))
(declare-fun temp682_11 () (_ BitVec 64))
(declare-fun temp682_10 () (_ BitVec 64))
(declare-fun temp682_12 () (_ BitVec 64))
(declare-fun var2634286 () (_ BitVec 64))
(declare-fun var2830970 () (_ BitVec 64))
(declare-fun temp682_14 () (_ BitVec 64))
(declare-fun temp682_13 () (_ BitVec 64))
(declare-fun var3018050 () (_ BitVec 64))
(declare-fun temp682_15 () (_ BitVec 64))
(declare-fun temp682_16 () (_ BitVec 64))
(declare-fun var3083591 () (_ BitVec 64))
(declare-fun var3149138 () (_ BitVec 64))
(assert (= temp682_1 #x0000000000000005))
(assert (= var201290 temp682_1))
(assert (= var201292 var201290))
(assert (= temp682_2 #x0000000000000005))
(assert (= var332362 temp682_2))
(assert (= var332364 var332362))
(assert (= var733184
   (ite (= ARGNAME_input_NAMEEND_DIM ARGNAME_dims_NAMEEND_LEN)
        #x0000000000000001
        #x0000000000000000)))
(assert (= temp682_3 #x0000000000000001))
(assert (= var733184 temp682_3))
(assert (= temp682_5 #x0000000000000000))
(assert (= temp682_4 temp682_5))
(assert (= temp682_6 #x0000000000000005))
(assert (= var987722 temp682_6))
(assert (= var987724 var987722))
(assert (= temp682_8 #x0000000000000000))
(assert (= temp682_7 temp682_8))
(assert (= temp682_9 #x0000000000000005))
(assert (= var1315402 temp682_9))
(assert (= var1315404 var1315402))
(assert (= temp682_11 #x0000000000000000))
(assert (= temp682_10 temp682_11))
(assert (= temp682_12 #x0000000000000000))
(assert (= var2634286
   (ite (distinct temp682_10 temp682_12) #x0000000000000001 #x0000000000000000)))
(assert (= var2830970 var2634286))
(assert (= temp682_14 #x0000000000000000))
(assert (= temp682_13 temp682_14))
(assert (= var3018050
   (ite (bvslt temp682_13 ARGNAME_input_NAMEEND_DIM)
        #x0000000000000001
        #x0000000000000000)))
(assert (= temp682_15
   (ite (= var3018050 #x0000000000000001) ARGNAME_input_NAMEEND_DIM temp682_13)))
(assert (= temp682_16 #x0000000000000000))
(assert (= var3083591 temp682_16))
(assert (= var3149138 var3083591))
(model-add temp682_1 () (_ BitVec 64) #x0000000000000005)
(model-add var201290 () (_ BitVec 64) #x0000000000000005)
(model-add var201292 () (_ BitVec 64) #x0000000000000005)
(model-add temp682_2 () (_ BitVec 64) #x0000000000000005)
(model-add var332362 () (_ BitVec 64) #x0000000000000005)
(model-add var332364 () (_ BitVec 64) #x0000000000000005)
(model-add temp682_3 () (_ BitVec 64) #x0000000000000001)
(model-add var733184 () (_ BitVec 64) #x0000000000000001)
(model-del k!0)
(model-add ARGNAME_input_NAMEEND_DIM
           ()
           (_ BitVec 64)
           (ite k!0 ARGNAME_dims_NAMEEND_LEN (bvnot ARGNAME_dims_NAMEEND_LEN)))






